p wcnf 134 201 202 
1 127 27 0 
1 -106 31 0 
1 66 109 0 
1 25 52 0 
1 39 75 0 
1 -45 -31 0 
1 -55 115 0 
1 -35 -118 0 
1 95 103 0 
1 118 28 0 
1 -40 36 0 
1 74 66 0 
1 -105 -134 0 
1 91 110 0 
1 -109 -45 0 
1 -76 -58 0 
1 60 12 0 
1 33 -38 0 
1 101 85 0 
1 78 84 0 
1 94 -102 0 
1 -56 113 0 
1 102 3 0 
1 -40 -5 0 
1 21 15 0 
1 -132 -70 0 
1 35 57 0 
1 72 -132 0 
1 112 -66 0 
1 -117 -47 0 
1 -36 133 0 
1 96 69 0 
1 63 -69 0 
1 -20 24 0 
1 60 -70 0 
1 10 -31 0 
1 115 -42 0 
1 131 29 0 
1 14 -47 0 
1 83 -64 0 
1 -87 -4 0 
1 -12 23 0 
1 43 41 0 
1 6 61 0 
1 -114 -85 0 
1 -103 73 0 
1 121 -71 0 
1 -122 62 0 
1 -34 112 0 
1 33 -55 0 
1 56 57 0 
1 -130 93 0 
1 -86 78 0 
1 -54 50 0 
1 -41 20 0 
1 -125 -40 0 
1 132 -125 0 
1 23 -97 0 
1 -102 91 0 
1 82 91 0 
1 116 132 0 
1 -52 -103 0 
1 -19 82 0 
1 -110 -93 0 
1 16 -33 0 
1 -123 -116 0 
1 13 120 0 
1 7 -45 0 
1 -91 -114 0 
1 -89 14 0 
1 -82 -59 0 
1 72 23 0 
1 -95 134 0 
1 -84 83 0 
1 -28 -120 0 
1 24 51 0 
1 25 62 0 
1 31 -120 0 
1 12 54 0 
1 68 -3 0 
1 20 -59 0 
1 -24 66 0 
1 -99 -100 0 
1 89 61 0 
1 61 -24 0 
1 -128 -73 0 
1 113 78 0 
1 39 -53 0 
1 11 -16 0 
1 96 15 0 
1 24 -1 0 
1 60 -99 0 
1 -125 -62 0 
1 127 -96 0 
1 -46 -39 0 
1 56 -52 0 
1 -14 130 0 
1 43 -74 0 
1 45 -61 0 
1 -20 -56 0 
1 -89 49 0 
1 28 -75 0 
1 -36 40 0 
1 -123 58 0 
1 -10 80 0 
1 108 91 0 
1 -44 -133 0 
1 -105 113 0 
1 6 122 0 
1 120 -69 0 
1 -21 -60 0 
1 129 20 0 
1 99 -1 0 
1 -106 -132 0 
1 119 61 0 
1 64 57 0 
1 -1 66 0 
1 -79 122 0 
1 88 -26 0 
1 -79 -99 0 
1 42 -74 0 
1 42 94 0 
1 73 -45 0 
1 106 -88 0 
1 87 -126 0 
1 -57 39 0 
1 -13 -7 0 
1 -6 -130 0 
1 -124 -48 0 
1 105 -38 0 
1 58 -101 0 
1 117 -118 0 
1 -2 -32 0 
1 46 -53 0 
1 46 -116 0 
1 44 -79 0 
1 99 -19 0 
1 -73 -14 0 
1 -104 -26 0 
1 -123 36 0 
1 95 -22 0 
1 104 9 0 
1 -98 19 0 
1 -126 104 0 
1 63 -84 0 
1 8 13 0 
1 -101 124 0 
1 -79 -19 0 
1 60 90 0 
1 53 -31 0 
1 76 58 0 
1 75 -96 0 
1 128 121 0 
1 47 -112 0 
1 -36 -90 0 
1 -35 -47 0 
1 -26 -62 0 
1 -3 -134 0 
1 51 -101 0 
1 -112 -5 0 
1 122 101 0 
1 18 107 0 
1 112 57 0 
1 -134 4 0 
1 65 -61 0 
1 -94 129 0 
1 -124 102 0 
1 39 -79 0 
1 -3 -78 0 
1 34 -52 0 
1 112 -74 0 
1 -119 113 0 
1 82 88 0 
1 -88 -93 0 
1 -35 6 0 
1 93 40 0 
1 68 -104 0 
1 18 33 0 
1 -49 -46 0 
1 37 -86 0 
1 -110 9 0 
1 109 72 0 
1 111 41 0 
1 -33 -88 0 
1 -77 -93 0 
1 127 -50 0 
1 70 -96 0 
1 -63 98 0 
1 -117 87 0 
1 -15 2 0 
1 -19 129 0 
1 40 -35 0 
1 15 57 0 
1 -68 -86 0 
1 113 40 0 
1 90 -51 0 
1 -105 -108 0 
1 -127 65 0 
1 -74 102 0 
1 -71 -91 0 
1 48 -25 0 
